set NODES := 0 1 2 3 4 5;

param C :
    0   1   2   3   4   5 :=
0  1976  544  1976  282  205  620
1  173  1976  178  358  1976  976
2  1976  942  1976  234  597  1976
3  135  1976  887  1976  195  931
4  913  958  226  1976  1976  336
5  802  664  284  126  169  1976
;

set PROHIBITED := ;

param start_node := 0;
param end_node := 5;
